DIMENSION: 8
EDGE_WEIGHT_TYPE: EXPLICIT
EDGE_WEIGHT_FORMAT: FULL_MATRIX
EDGE_WEIGHT_SECTION:
32767 32767 89 52 66 79 95 32767 
32767 32767 89 44 17 65 20 32767 
89 89 32767 33 7 80 95 32767 
52 44 33 32767 83 36 22 69 
66 17 7 83 32767 94 77 83 
79 65 80 36 94 32767 32767 51 
95 20 95 22 77 32767 32767 5 
32767 32767 32767 69 83 51 5 32767 
EOF